1
0 0
1 1
198
199
0 1
1 2
197
198
0 2
1 3
196
197
0 3
1 4
195
196
0 4
1 5
194
195
0 5
1 6
193
194
0 6
1 7
192
193
0 7
1 8
191
192
0 8
1 9
190
191
0 9
1 10
189
190
0 10
1 11
188
189
0 11
1 12
187
188
0 12
1 13
186
187
0 13
1 14
185
186
0 14
1 15
184
185
0 15
1 16
183
184
0 16
1 17
182
183
0 17
1 18
181
182
0 18
1 19
180
181
0 19
1 20
179
180
0 20
1 21
178
179
0 21
1 22
177
178
0 22
1 23
176
177
0 23
1 24
175
176
0 24
1 25
174
175
0 25
1 26
173
174
0 26
1 27
172
173
0 27
1 28
171
172
0 28
1 29
170
171
0 29
1 30
169
170
0 30
1 31
168
169
0 31
1 32
167
168
0 32
1 33
166
167
0 33
1 34
165
166
0 34
1 35
164
165
0 35
1 36
163
164
0 36
1 37
162
163
0 37
1 38
161
162
0 38
1 39
160
161
0 39
1 40
159
160
0 40
1 41
158
159
0 41
1 42
157
158
0 42
1 43
156
157
0 43
1 44
155
156
0 44
1 45
154
155
0 45
1 46
153
154
0 46
1 47
152
153
0 47
1 48
151
152
0 48
1 49
150
151
0 49
1 50
149
150
0 50
1 51
148
149
0 51
1 52
147
148
0 52
1 53
146
147
0 53
1 54
145
146
0 54
1 55
144
145
0 55
1 56
143
144
0 56
1 57
142
143
0 57
1 58
141
142
0 58
1 59
140
141
0 59
1 60
139
140
0 60
1 61
138
139
0 61
1 62
137
138
0 62
1 63
136
137
0 63
1 64
135
136
0 64
1 65
134
135
0 65
1 66
133
134
0 66
1 67
132
133
0 67
1 68
131
132
0 68
1 69
130
131
0 69
1 70
129
130
0 70
1 71
128
129
0 71
1 72
127
128
0 72
1 73
126
127
0 73
1 74
125
126
0 74
1 75
124
125
0 75
1 76
123
124
0 76
1 77
122
123
0 77
1 78
121
122
0 78
1 79
120
121
0 79
1 80
119
120
0 80
1 81
118
119
0 81
1 82
117
118
0 82
1 83
116
117
0 83
1 84
115
116
0 84
1 85
114
115
0 85
1 86
113
114
0 86
1 87
112
113
0 87
1 88
111
112
0 88
1 89
110
111
0 89
1 90
109
110
0 90
1 91
108
109
0 91
1 92
107
108
0 92
1 93
106
107
0 93
1 94
105
106
0 94
1 95
104
105
0 95
1 96
103
104
0 96
1 97
102
103
0 97
1 98
101
102
0 98
1 99
100
101
0 99
1 100
99
100
0 100
1 101
98
99
0 101
1 102
97
98
0 102
1 103
96
97
0 103
1 104
95
96
0 104
1 105
94
95
0 105
1 106
93
94
0 106
1 107
92
93
0 107
1 108
91
92
0 108
1 109
90
91
0 109
1 110
89
90
0 110
1 111
88
89
0 111
1 112
87
88
0 112
1 113
86
87
0 113
1 114
85
86
0 114
1 115
84
85
0 115
1 116
83
84
0 116
1 117
82
83
0 117
1 118
81
82
0 118
1 119
80
81
0 119
1 120
79
80
0 120
1 121
78
79
0 121
1 122
77
78
0 122
1 123
76
77
0 123
1 124
75
76
0 124
1 125
74
75
0 125
1 126
73
74
0 126
1 127
72
73
0 127
1 128
71
72
0 128
1 129
70
71
0 129
1 130
69
70
0 130
1 131
68
69
0 131
1 132
67
68
0 132
1 133
66
67
0 133
1 134
65
66
0 134
1 135
64
65
0 135
1 136
63
64
0 136
1 137
62
63
0 137
1 138
61
62
0 138
1 139
60
61
0 139
1 140
59
60
0 140
1 141
58
59
0 141
1 142
57
58
0 142
1 143
56
57
0 143
1 144
55
56
0 144
1 145
54
55
0 145
1 146
53
54
0 146
1 147
52
53
0 147
1 148
51
52
0 148
1 149
50
51
0 149
1 150
49
50
0 150
1 151
48
49
0 151
1 152
47
48
0 152
1 153
46
47
0 153
1 154
45
46
0 154
1 155
44
45
0 155
1 156
43
44
0 156
1 157
42
43
0 157
1 158
41
42
0 158
1 159
40
41
0 159
1 160
39
40
0 160
1 161
38
39
0 161
1 162
37
38
0 162
1 163
36
37
0 163
1 164
35
36
0 164
1 165
34
35
0 165
1 166
33
34
0 166
1 167
32
33
0 167
1 168
31
32
0 168
1 169
30
31
0 169
1 170
29
30
0 170
1 171
28
29
0 171
1 172
27
28
0 172
1 173
26
27
0 173
1 174
25
26
0 174
1 175
24
25
0 175
1 176
23
24
0 176
1 177
22
23
0 177
1 178
21
22
0 178
1 179
20
21
0 179
1 180
19
20
0 180
1 181
18
19
0 181
1 182
17
18
0 182
1 183
16
17
0 183
1 184
15
16
0 184
1 185
14
15
0 185
1 186
13
14
0 186
1 187
12
13
0 187
1 188
11
12
0 188
1 189
10
11
0 189
1 190
9
10
0 190
1 191
8
9
0 191
1 192
7
8
0 192
1 193
6
7
0 193
1 194
5
6
0 194
1 195
4
5
0 195
1 196
3
4
0 196
1 197
2
3
0 197
1 198
1
2
0 198
1 199
0
1
